Traveling Salesman Problem/TSP_generados/Aleatorio1620391177_14.tsp
NAME: Aleatorio1620391177_14.tsp
COMMENT: Randomly generated scenario
TYPE: TSP
DIMENSION: 14
EDGE_WEIGHT_TYPE: ATT
NODE_COORD_SECTION
1 46.04 39.21
2 7.95 41.27
3 13.2 32.47
4 34.25 39.46
5 31.25 25.49
6 25.23 47.33
7 15.28 12.38
8 4.16 12.81
9 45.05 18.16
10 43.27 25.27
11 36.14 0.24
12 45.92 8.21
13 6.65 22.11
14 24.16 21.35
