Traveling Salesman Problem/TSP_generados/Aleatorio1620391177_14.opt.tour
NAME: Aleatorio1620391177_14.opt.tour
COMMENT: Optimal solution for Aleatorio1620391177_14 (176.03256138807834)
TYPE: TOUR
DIMENSION: 14
TOUR_SECTION
1 4 6 2 3 13 8 7 14 5 11 12 9 10
-1
EOF
